problems/GracefulHelms/GracefulHelms-models/noch/O2/lingeling/model-n05-solution000001.eprime-solution
language ESSENCE' 1.0

letting colouring_Function1D be [13, 3, 14, 9, 15, 6, 4, 2, 1, 11, 0; int(0..10)]
letting edgeID_Function1D be [10, 11, 5, 6, 2, 7, 1, 12, 8, 4, 13, 3, 14, 9, 15; int(0..14)]
