problems/GracefulHelms/GracefulHelms-models/noch/O2/lingeling/model-n05-solution000001.solution
language Essence 1.3

letting colouring be
        function(0 --> 13, 1 --> 3, 2 --> 14, 3 --> 9, 4 --> 15, 5 --> 6, 6 --> 4, 7 --> 2, 8 --> 1, 9 --> 11, 10 --> 0)
letting edgeID be
        function(0 --> 10, 1 --> 11, 2 --> 5, 3 --> 6, 4 --> 2, 5 --> 7, 6 --> 1, 7 --> 12, 8 --> 8, 9 --> 4, 10 --> 13,
                 11 --> 3, 12 --> 14, 13 --> 9, 14 --> 15)
